(set-info :smt-lib-version 2.6)
(set-logic QF_LIA)
(set-info :source |
Generated by: Nicolas Amat, Bernard Berthomieu, Silvano Dal Zilio, Didier Le Botlan
Generated on: 2022-03-07
Generator: SMPT
Application: Reachability query on the instance BART-PT-002 from the Model Checking Contest 2021 using the SMPT model-checker
Target solver: z3
Publications: https://doi.org/10.1007/978-3-030-76983-3_9, http://mcc.lip6.fr/2021/results.php
|)
(set-info :license "https://creativecommons.org/licenses/by/4.0/")
(set-info :category "industrial")
(set-info :status sat)

(declare-const TrainState_1_0_0 Int)
(declare-const DistStation_10 Int)
(declare-const TrainState_1_1_10 Int)
(declare-const DistStation_11 Int)
(declare-const TrainState_1_1_11 Int)
(declare-const DistStation_12 Int)
(declare-const TrainState_1_1_12 Int)
(declare-const DistStation_13 Int)
(declare-const TrainState_1_1_13 Int)
(declare-const DistStation_14 Int)
(declare-const TrainState_1_1_14 Int)
(assert (>= TrainState_1_1_14 0))
(declare-const DistStation_15 Int)
(assert (>= DistStation_15 0))
(declare-const TrainState_1_1_15 Int)
(assert (>= TrainState_1_1_15 0))
(declare-const DistStation_16 Int)
(assert (>= DistStation_16 0))
(declare-const TrainState_1_1_16 Int)

(check-sat)
